(set-info :smt-lib-version 2.6)
(set-info :category "crafted")
(set-logic QF_FFA)
(define-sort FF0 () (_ FiniteField 52435875175126190479447740508185965837690552500527637822603658699938581184513))
(declare-fun a () Bool)
(declare-fun b () Bool)
(declare-fun d () Bool)
(declare-fun c () Bool)
(declare-fun return_n2 () FF0)
(declare-fun mul_n90 () FF0)
(declare-fun mul_n62 () FF0)
(declare-fun mul_n89 () FF0)
(declare-fun mul_n85 () FF0)
(declare-fun mul_n88 () FF0)
(declare-fun mul_n49 () FF0)
(declare-fun mul_n87 () FF0)
(declare-fun mul_n35 () FF0)
(declare-fun mul_n86 () FF0)
(declare-fun mul_n34 () FF0)
(declare-fun mul_n50 () FF0)
(declare-fun mul_n33 () FF0)
(declare-fun a_n4 () FF0)
(declare-fun mul_n51 () FF0)
(declare-fun d_n0 () FF0)
(declare-fun mul_n23 () FF0)
(declare-fun mul_n71 () FF0)
(declare-fun mul_n52 () FF0)
(declare-fun mul_n38 () FF0)
(declare-fun mul_n46 () FF0)
(declare-fun mul_n9 () FF0)
(declare-fun mul_n84 () FF0)
(declare-fun mul_n83 () FF0)
(declare-fun mul_n57 () FF0)
(declare-fun mul_n82 () FF0)
(declare-fun mul_n39 () FF0)
(declare-fun mul_n81 () FF0)
(declare-fun mul_n22 () FF0)
(declare-fun mul_n64 () FF0)
(declare-fun mul_n80 () FF0)
(declare-fun mul_n79 () FF0)
(declare-fun mul_n27 () FF0)
(declare-fun mul_n41 () FF0)
(declare-fun mul_n40 () FF0)
(declare-fun mul_n78 () FF0)
(declare-fun mul_n65 () FF0)
(declare-fun mul_n77 () FF0)
(declare-fun mul_n25 () FF0)
(declare-fun mul_n63 () FF0)
(declare-fun mul_n10 () FF0)
(declare-fun mul_n26 () FF0)
(declare-fun mul_n58 () FF0)
(declare-fun b_n3 () FF0)
(declare-fun mul_n76 () FF0)
(declare-fun mul_n70 () FF0)
(declare-fun mul_n75 () FF0)
(declare-fun mul_n72 () FF0)
(declare-fun mul_n74 () FF0)
(declare-fun mul_n73 () FF0)
(declare-fun mul_n44 () FF0)
(declare-fun mul_n54 () FF0)
(declare-fun mul_n69 () FF0)
(declare-fun mul_n68 () FF0)
(declare-fun mul_n67 () FF0)
(declare-fun mul_n66 () FF0)
(declare-fun mul_n29 () FF0)
(declare-fun mul_n53 () FF0)
(declare-fun mul_n7 () FF0)
(declare-fun mul_n61 () FF0)
(declare-fun mul_n24 () FF0)
(declare-fun mul_n36 () FF0)
(declare-fun mul_n60 () FF0)
(declare-fun mul_n59 () FF0)
(declare-fun mul_n42 () FF0)
(declare-fun mul_n56 () FF0)
(declare-fun mul_n55 () FF0)
(declare-fun mul_n11 () FF0)
(declare-fun mul_n45 () FF0)
(declare-fun mul_n48 () FF0)
(declare-fun mul_n47 () FF0)
(declare-fun mul_n43 () FF0)
(declare-fun mul_n37 () FF0)
(declare-fun mul_n32 () FF0)
(declare-fun mul_n31 () FF0)
(declare-fun mul_n21 () FF0)
(declare-fun mul_n30 () FF0)
(declare-fun mul_n20 () FF0)
(declare-fun mul_n19 () FF0)
(declare-fun mul_n18 () FF0)
(declare-fun mul_n17 () FF0)
(declare-fun mul_n16 () FF0)
(declare-fun mul_n15 () FF0)
(declare-fun mul_n14 () FF0)
(declare-fun c_n1 () FF0)
(declare-fun mul_n13 () FF0)
(declare-fun mul_n12 () FF0)
(declare-fun mul_n6 () FF0)
(declare-fun mul_n5 () FF0)
(assert 
  (let ((let0 a))
  (let ((let1 b))
  (let ((let2 d))
  (let ((let3 c))
  (let ((let4 (and let0 let3 let2 let0)))
  (let ((let5 (ite let4 let1 let1)))
  (let ((let6 (or let5 let0)))
  (let ((let7 (ite let3 let4 let5)))
  (let ((let8 (=> let2 let1)))
  (let ((let9 (and let6 let8 let3 let3 let7 let8 let4 let8 let7 let6 let4)))
  (let ((let10 (=> let9 let5)))
  (let ((let11 (=> let7 let10)))
  (let ((let12 (= let11 let6)))
  (let ((let13 (= let5 let7)))
  (let ((let14 (ite let2 let9 let13)))
  (let ((let15 (not let14)))
  (let ((let16 (or let14 let9)))
  (let ((let17 (ite let16 let16 let16)))
  (let ((let18 (or let13 let17)))
  (let ((let19 (or let13 let14 let9 let14 let18)))
  (let ((let20 (= let19 let2)))
  (let ((let21 (= let20 let20)))
  (let ((let22 (and let21 let15)))
  (let ((let23 (= let22 let12)))
  (let ((let24 (not let18)))
  (let ((let25 (not let17)))
  (let ((let26 (= let6 let19)))
  (let ((let27 (not let26)))
  (let ((let28 (not let10)))
  (let ((let29 (or let28 let27)))
  (let ((let30 (= let29 let25)))
  (let ((let31 (= let30 let17)))
  (let ((let32 (not let31)))
  (let ((let33 (=> let32 let24)))
  (let ((let34 (=> let33 let23)))
  (let ((let35 (ite let26 let2 let0)))
  (let ((let36 (not let35)))
  (let ((let37 (= let36 let8)))
  (let ((let38 (ite let18 let19 let26)))
  (let ((let39 (not let38)))
  (let ((let40 (and let25 let24 let27 let39)))
  (let ((let41 (=> let40 let37)))
  (let ((let42 (= let41 let21)))
  (let ((let43 (not let24)))
  (let ((let44 (or let43 let43)))
  (let ((let45 (not let43)))
  (let ((let46 (= let45 let44)))
  (let ((let47 (or let1 let35)))
  (let ((let48 (ite let41 let47 let46)))
  (let ((let49 (and let48 let42 let33)))
  (let ((let50 (= let38 let16)))
  (let ((let51 (not let30)))
  (let ((let52 (or let32 let51 let12 let50)))
  (let ((let53 (not let52)))
  (let ((let54 (and let53 let49)))
  (let ((let55 (= let50 let15)))
  (let ((let56 (ite let55 let22 let28)))
  (let ((let57 (=> let12 let52)))
  (let ((let58 (or let4 let46 let51 let35 let44 let47)))
  (let ((let59 (= let44 let11)))
  (let ((let60 (ite let31 let36 let59)))
  (let ((let61 (=> let29 let39)))
  (let ((let62 (or let51 let61 let60)))
  (let ((let63 (and let62 let58 let55 let57 let31 let21 let56 let29 let49 let41 let38)))
  (let ((let64 (not let40)))
  (let ((let65 (= let0 let42)))
  (let ((let66 (not let59)))
  (let ((let67 (and let66 let65 let64 let63 let54 let34)))
  (let ((let68 return_n2))
  (let ((let69 (as ff1 FF0)))
  (let ((let70 (= let69 let68)))
  (let ((let71 (= let70 let67)))
  (let ((let72 (as ff0 FF0)))
  (let ((let73 (= let72 let68)))
  (let ((let74 (or let70 let73)))
  (let ((let75 (and let74 let71)))
  (let ((let76 mul_n90))
  (let ((let77 mul_n62))
  (let ((let78 mul_n89))
  (let ((let79 (ff.mul let78 let77)))
  (let ((let80 (= let79 let76)))
  (let ((let81 mul_n85))
  (let ((let82 mul_n88))
  (let ((let83 (ff.mul let82 let81)))
  (let ((let84 (= let83 let78)))
  (let ((let85 (as ff52435875175126190479447740508185965837690552500527637822603658699938581184512 FF0)))
  (let ((let86 mul_n49))
  (let ((let87 (ff.mul let86 let85)))
  (let ((let88 (ff.add let87 let69)))
  (let ((let89 mul_n87))
  (let ((let90 (ff.mul let89 let88)))
  (let ((let91 (= let90 let82)))
  (let ((let92 (as ff2 FF0)))
  (let ((let93 mul_n35))
  (let ((let94 mul_n86))
  (let ((let95 (as ff52435875175126190479447740508185965837690552500527637822603658699938581184511 FF0)))
  (let ((let96 mul_n34))
  (let ((let97 (ff.mul let96 let95)))
  (let ((let98 mul_n50))
  (let ((let99 (ff.mul let98 let85)))
  (let ((let100 mul_n33))
  (let ((let101 (ff.mul let100 let95)))
  (let ((let102 a_n4))
  (let ((let103 (ff.mul let102 let85)))
  (let ((let104 mul_n51))
  (let ((let105 (ff.mul let104 let85)))
  (let ((let106 d_n0))
  (let ((let107 (ff.mul let106 let92)))
  (let ((let108 (ff.add let107 let105 let103 let101 let99 let97 let94 let93 let92)))
  (let ((let109 mul_n23))
  (let ((let110 (ff.mul let109 let85)))
  (let ((let111 mul_n71))
  (let ((let112 (ff.mul let111 let85)))
  (let ((let113 mul_n52))
  (let ((let114 (ff.mul let113 let85)))
  (let ((let115 (ff.add let114 let112 let110 let92)))
  (let ((let116 (ff.mul let115 let108)))
  (let ((let117 (= let116 let89)))
  (let ((let118 (ff.mul let100 let92)))
  (let ((let119 (ff.mul let96 let92)))
  (let ((let120 (ff.mul let93 let85)))
  (let ((let121 (ff.mul let106 let95)))
  (let ((let122 (ff.add let121 let120 let98 let119 let118 let104 let85)))
  (let ((let123 (ff.mul let102 let92)))
  (let ((let124 (ff.mul let123 let122)))
  (let ((let125 (= let124 let94)))
  (let ((let126 mul_n38))
  (let ((let127 mul_n46))
  (let ((let128 mul_n9))
  (let ((let129 (ff.add let100 let128 let127 let126 let85)))
  (let ((let130 mul_n84))
  (let ((let131 (ff.mul let130 let129)))
  (let ((let132 (= let131 let81)))
  (let ((let133 (ff.add let99 let69)))
  (let ((let134 mul_n83))
  (let ((let135 (ff.mul let134 let133)))
  (let ((let136 (= let135 let130)))
  (let ((let137 mul_n57))
  (let ((let138 mul_n82))
  (let ((let139 (ff.mul let138 let137)))
  (let ((let140 (= let139 let134)))
  (let ((let141 mul_n39))
  (let ((let142 (ff.mul let141 let85)))
  (let ((let143 (ff.add let142 let69)))
  (let ((let144 mul_n81))
  (let ((let145 (ff.mul let144 let143)))
  (let ((let146 (= let145 let138)))
  (let ((let147 mul_n22))
  (let ((let148 mul_n64))
  (let ((let149 (ff.add let148 let147)))
  (let ((let150 mul_n80))
  (let ((let151 (ff.mul let150 let149)))
  (let ((let152 (= let151 let144)))
  (let ((let153 (ff.add let107 let97 let101 let93 let69)))
  (let ((let154 mul_n79))
  (let ((let155 (ff.mul let154 let153)))
  (let ((let156 (= let155 let150)))
  (let ((let157 mul_n27))
  (let ((let158 (ff.mul let157 let92)))
  (let ((let159 mul_n41))
  (let ((let160 mul_n40))
  (let ((let161 (ff.mul let160 let85)))
  (let ((let162 (ff.add let161 let142 let159 let158)))
  (let ((let163 mul_n78))
  (let ((let164 (ff.mul let163 let162)))
  (let ((let165 (= let164 let154)))
  (let ((let166 mul_n65))
  (let ((let167 (ff.mul let166 let85)))
  (let ((let168 (ff.add let167 let69)))
  (let ((let169 mul_n77))
  (let ((let170 (ff.mul let169 let168)))
  (let ((let171 (= let170 let163)))
  (let ((let172 mul_n25))
  (let ((let173 mul_n63))
  (let ((let174 (ff.mul let157 let85)))
  (let ((let175 mul_n10))
  (let ((let176 (ff.mul let175 let85)))
  (let ((let177 mul_n26))
  (let ((let178 mul_n58))
  (let ((let179 (ff.mul let178 let85)))
  (let ((let180 b_n3))
  (let ((let181 (ff.mul let180 let95)))
  (let ((let182 (ff.add let181 let179 let177 let176 let100 let127 let174 let173 let128 let126 let172)))
  (let ((let183 mul_n76))
  (let ((let184 (ff.mul let183 let182)))
  (let ((let185 (= let184 let169)))
  (let ((let186 mul_n70))
  (let ((let187 (ff.mul let186 let85)))
  (let ((let188 (ff.add let187 let69)))
  (let ((let189 mul_n75))
  (let ((let190 (ff.mul let189 let85)))
  (let ((let191 (ff.add let190 let69)))
  (let ((let192 (ff.mul let191 let188)))
  (let ((let193 (= let192 let183)))
  (let ((let194 mul_n72))
  (let ((let195 (ff.mul let194 let85)))
  (let ((let196 (ff.add let195 let110 let114 let112 let92)))
  (let ((let197 mul_n74))
  (let ((let198 (ff.mul let197 let196)))
  (let ((let199 (= let198 let189)))
  (let ((let200 mul_n73))
  (let ((let201 (ff.add let160 let141 let174)))
  (let ((let202 (ff.mul let201 let200)))
  (let ((let203 (= let202 let197)))
  (let ((let204 (ff.add let127 let100 let126 let128 let85)))
  (let ((let205 (ff.mul let143 let204)))
  (let ((let206 (= let205 let200)))
  (let ((let207 mul_n44))
  (let ((let208 (ff.mul let207 let85)))
  (let ((let209 (ff.add let110 let208 let103 let114 let112 let92)))
  (let ((let210 (ff.mul let162 let209)))
  (let ((let211 (= let210 let194)))
  (let ((let212 (ff.add let110 let69)))
  (let ((let213 (ff.mul let113 let95)))
  (let ((let214 (ff.add let213 let92)))
  (let ((let215 (ff.mul let214 let212)))
  (let ((let216 (= let215 let111)))
  (let ((let217 mul_n54))
  (let ((let218 mul_n69))
  (let ((let219 (ff.mul let218 let217)))
  (let ((let220 (= let219 let186)))
  (let ((let221 mul_n68))
  (let ((let222 (ff.mul let221 let113)))
  (let ((let223 (= let222 let218)))
  (let ((let224 (ff.add let208 let103 let69)))
  (let ((let225 mul_n67))
  (let ((let226 (ff.mul let225 let224)))
  (let ((let227 (= let226 let221)))
  (let ((let228 mul_n66))
  (let ((let229 (ff.mul let228 let201)))
  (let ((let230 (= let229 let225)))
  (let ((let231 mul_n29))
  (let ((let232 mul_n53))
  (let ((let233 (ff.mul let232 let85)))
  (let ((let234 (ff.add let114 let233 let231 let69)))
  (let ((let235 mul_n7))
  (let ((let236 (ff.mul let235 let85)))
  (let ((let237 (ff.add let236 let69)))
  (let ((let238 (ff.mul let237 let234)))
  (let ((let239 (= let238 let228)))
  (let ((let240 mul_n61))
  (let ((let241 mul_n24))
  (let ((let242 (ff.add let241 let128 let109 let85)))
  (let ((let243 (ff.mul let242 let240)))
  (let ((let244 (= let243 let166)))
  (let ((let245 (ff.mul let147 let85)))
  (let ((let246 mul_n36))
  (let ((let247 (ff.add let246 let245)))
  (let ((let248 (ff.mul let182 let247)))
  (let ((let249 (= let248 let148)))
  (let ((let250 (ff.mul let180 let92)))
  (let ((let251 (ff.mul let172 let85)))
  (let ((let252 (ff.mul let177 let85)))
  (let ((let253 (ff.add let252 let175 let251 let250)))
  (let ((let254 (ff.mul let127 let95)))
  (let ((let255 (ff.mul let128 let95)))
  (let ((let256 (ff.mul let178 let92)))
  (let ((let257 (ff.mul let126 let95)))
  (let ((let258 (ff.add let257 let158 let256 let101 let255 let254 let92)))
  (let ((let259 (ff.mul let258 let253)))
  (let ((let260 (= let259 let173)))
  (let ((let261 (ff.mul let240 let137)))
  (let ((let262 (= let261 let77)))
  (let ((let263 (ff.add let128 let127 let179 let100 let126 let174)))
  (let ((let264 mul_n60))
  (let ((let265 (ff.mul let264 let263)))
  (let ((let266 (= let265 let240)))
  (let ((let267 (ff.mul let128 let85)))
  (let ((let268 (ff.mul let241 let85)))
  (let ((let269 (ff.add let268 let267 let110 let92)))
  (let ((let270 mul_n59))
  (let ((let271 (ff.mul let270 let269)))
  (let ((let272 (= let271 let264)))
  (let ((let273 (ff.mul let162 let201)))
  (let ((let274 (= let273 let270)))
  (let ((let275 (ff.add let174 let69)))
  (let ((let276 (ff.mul let126 let92)))
  (let ((let277 (ff.mul let127 let92)))
  (let ((let278 (ff.mul let128 let92)))
  (let ((let279 (ff.add let118 let278 let277 let276 let95)))
  (let ((let280 (ff.mul let279 let275)))
  (let ((let281 (= let280 let178)))
  (let ((let282 mul_n42))
  (let ((let283 (ff.mul let282 let85)))
  (let ((let284 (ff.add let283 let69)))
  (let ((let285 mul_n56))
  (let ((let286 (ff.mul let285 let284)))
  (let ((let287 (= let286 let137)))
  (let ((let288 mul_n55))
  (let ((let289 (ff.mul let231 let85)))
  (let ((let290 (ff.add let232 let289 let288 let113)))
  (let ((let291 (ff.mul let290 let122)))
  (let ((let292 (= let291 let285)))
  (let ((let293 (ff.mul let217 let85)))
  (let ((let294 (ff.add let233 let231 let114 let293 let69)))
  (let ((let295 (ff.mul let133 let294)))
  (let ((let296 (= let295 let288)))
  (let ((let297 (ff.mul let180 let85)))
  (let ((let298 (ff.add let297 let69)))
  (let ((let299 (ff.mul let298 let224)))
  (let ((let300 (= let299 let217)))
  (let ((let301 (ff.add let114 let69)))
  (let ((let302 (ff.mul let231 let92)))
  (let ((let303 (ff.mul let302 let301)))
  (let ((let304 (= let303 let232)))
  (let ((let305 (ff.mul let231 let231)))
  (let ((let306 (= let305 let113)))
  (let ((let307 (ff.mul let98 let95)))
  (let ((let308 (ff.add let307 let92)))
  (let ((let309 (ff.mul let308 let153)))
  (let ((let310 (= let309 let104)))
  (let ((let311 mul_n11))
  (let ((let312 (ff.mul let311 let85)))
  (let ((let313 mul_n45))
  (let ((let314 (ff.mul let313 let85)))
  (let ((let315 (ff.add let314 let208 let103 let312 let92)))
  (let ((let316 (ff.mul let86 let315)))
  (let ((let317 (= let316 let98)))
  (let ((let318 (ff.mul let127 let85)))
  (let ((let319 (ff.mul let100 let85)))
  (let ((let320 (ff.mul let126 let85)))
  (let ((let321 (ff.add let320 let319 let267 let318 let92)))
  (let ((let322 mul_n48))
  (let ((let323 (ff.mul let322 let321)))
  (let ((let324 (= let323 let86)))
  (let ((let325 (ff.add let267 let320 let319 let92)))
  (let ((let326 mul_n47))
  (let ((let327 (ff.mul let326 let325)))
  (let ((let328 (= let327 let322)))
  (let ((let329 (ff.mul let157 let231)))
  (let ((let330 (= let329 let326)))
  (let ((let331 (ff.add let101 let267 let320 let92)))
  (let ((let332 (ff.add let289 let69)))
  (let ((let333 (ff.mul let332 let331)))
  (let ((let334 (= let333 let127)))
  (let ((let335 (ff.add let312 let69)))
  (let ((let336 (ff.mul let102 let95)))
  (let ((let337 (ff.mul let207 let95)))
  (let ((let338 (ff.add let337 let336 let92)))
  (let ((let339 (ff.mul let338 let335)))
  (let ((let340 (= let339 let313)))
  (let ((let341 (ff.add let106 let103)))
  (let ((let342 (ff.add let128 let126 let100 let85)))
  (let ((let343 (ff.mul let342 let341)))
  (let ((let344 (= let343 let207)))
  (let ((let345 mul_n43))
  (let ((let346 mul_n37))
  (let ((let347 (ff.mul let346 let85)))
  (let ((let348 (ff.add let241 let347 let109 let246 let128 let85)))
  (let ((let349 (ff.mul let284 let348)))
  (let ((let350 (= let349 let345)))
  (let ((let351 (ff.mul let157 let95)))
  (let ((let352 (ff.mul let159 let85)))
  (let ((let353 (ff.add let160 let141 let352 let351 let69)))
  (let ((let354 (ff.mul let353 let332)))
  (let ((let355 (= let354 let282)))
  (let ((let356 (ff.mul let141 let92)))
  (let ((let357 (ff.mul let160 let92)))
  (let ((let358 (ff.add let357 let356 let351)))
  (let ((let359 (ff.mul let358 let275)))
  (let ((let360 (= let359 let159)))
  (let ((let361 (ff.mul let141 let95)))
  (let ((let362 (ff.add let361 let92)))
  (let ((let363 (ff.mul let362 let157)))
  (let ((let364 (= let363 let160)))
  (let ((let365 (ff.add let245 let69)))
  (let ((let366 (ff.mul let365 let342)))
  (let ((let367 (= let366 let141)))
  (let ((let368 (ff.add let319 let69)))
  (let ((let369 (ff.add let255 let92)))
  (let ((let370 (ff.mul let369 let368)))
  (let ((let371 (= let370 let126)))
  (let ((let372 (ff.mul let246 let92)))
  (let ((let373 (ff.mul let372 let242)))
  (let ((let374 (= let373 let346)))
  (let ((let375 (ff.mul let153 let253)))
  (let ((let376 (= let375 let246)))
  (let ((let377 (ff.mul let106 let85)))
  (let ((let378 (ff.add let377 let100 let96)))
  (let ((let379 (ff.add let121 let118 let119)))
  (let ((let380 (ff.mul let379 let378)))
  (let ((let381 (= let380 let93)))
  (let ((let382 (ff.add let101 let92)))
  (let ((let383 (ff.mul let382 let106)))
  (let ((let384 (= let383 let96)))
  (let ((let385 mul_n32))
  (let ((let386 (ff.mul let385 let231)))
  (let ((let387 (= let386 let100)))
  (let ((let388 mul_n31))
  (let ((let389 (ff.mul let388 let253)))
  (let ((let390 (= let389 let385)))
  (let ((let391 mul_n21))
  (let ((let392 (ff.mul let391 let85)))
  (let ((let393 (ff.add let392 let69)))
  (let ((let394 mul_n30))
  (let ((let395 (ff.mul let394 let393)))
  (let ((let396 (= let395 let388)))
  (let ((let397 (ff.add let175 let251 let250)))
  (let ((let398 (ff.mul let397 let253)))
  (let ((let399 (= let398 let394)))
  (let ((let400 (ff.mul let397 let157)))
  (let ((let401 (= let400 let231)))
  (let ((let402 (ff.mul let253 let393)))
  (let ((let403 (= let402 let157)))
  (let ((let404 (ff.add let391 let175 let251 let250 let85)))
  (let ((let405 (ff.mul let106 let404)))
  (let ((let406 (= let405 let177)))
  (let ((let407 (ff.add let175 let180)))
  (let ((let408 (ff.mul let250 let407)))
  (let ((let409 (= let408 let172)))
  (let ((let410 (ff.add let267 let69)))
  (let ((let411 (ff.mul let109 let95)))
  (let ((let412 (ff.add let411 let92)))
  (let ((let413 (ff.mul let412 let410)))
  (let ((let414 (= let413 let241)))
  (let ((let415 (ff.mul let407 let147)))
  (let ((let416 (= let415 let109)))
  (let ((let417 (ff.mul let391 let298)))
  (let ((let418 (= let417 let147)))
  (let ((let419 mul_n20))
  (let ((let420 (ff.mul let419 let235)))
  (let ((let421 (= let420 let391)))
  (let ((let422 mul_n19))
  (let ((let423 (ff.mul let422 let410)))
  (let ((let424 (= let423 let419)))
  (let ((let425 mul_n18))
  (let ((let426 (ff.mul let425 let407)))
  (let ((let427 (= let426 let422)))
  (let ((let428 mul_n17))
  (let ((let429 (ff.mul let428 let335)))
  (let ((let430 (= let429 let425)))
  (let ((let431 mul_n16))
  (let ((let432 (ff.mul let431 let235)))
  (let ((let433 (= let432 let428)))
  (let ((let434 mul_n15))
  (let ((let435 (ff.mul let434 let335)))
  (let ((let436 (= let435 let431)))
  (let ((let437 mul_n14))
  (let ((let438 (ff.mul let437 let407)))
  (let ((let439 (= let438 let434)))
  (let ((let440 c_n1))
  (let ((let441 mul_n13))
  (let ((let442 (ff.mul let441 let440)))
  (let ((let443 (= let442 let437)))
  (let ((let444 mul_n12))
  (let ((let445 (ff.mul let444 let440)))
  (let ((let446 (= let445 let441)))
  (let ((let447 (ff.mul let410 let335)))
  (let ((let448 (= let447 let444)))
  (let ((let449 (ff.mul let106 let298)))
  (let ((let450 (= let449 let311)))
  (let ((let451 (ff.add let297 let235)))
  (let ((let452 (ff.mul let440 let451)))
  (let ((let453 (= let452 let175)))
  (let ((let454 (ff.add let103 let69)))
  (let ((let455 (ff.mul let298 let454)))
  (let ((let456 (= let455 let128)))
  (let ((let457 mul_n6))
  (let ((let458 (ff.mul let457 let102)))
  (let ((let459 (= let458 let235)))
  (let ((let460 mul_n5))
  (let ((let461 (ff.mul let460 let106)))
  (let ((let462 (= let461 let457)))
  (let ((let463 (ff.mul let102 let440)))
  (let ((let464 (= let463 let460)))
  (let ((let465 (and let464 let462 let459 let456 let453 let450 let448 let446 let443 let439 let436 let433 let430 let427 let424 let421 let418 let416 let414 let409 let406 let403 let401 let399 let396 let390 let387 let384 let381 let376 let374 let371 let367 let364 let360 let355 let350 let344 let340 let334 let330 let328 let324 let317 let310 let306 let304 let300 let296 let292 let287 let281 let274 let272 let266 let262 let260 let249 let244 let239 let230 let227 let223 let220 let216 let211 let206 let203 let199 let193 let185 let171 let165 let156 let152 let146 let140 let136 let132 let125 let117 let91 let84 let80)))
  (let ((let466 (ite let2 let69 let72)))
  (let ((let467 (= let106 let466)))
  (let ((let468 (ite let0 let69 let72)))
  (let ((let469 (= let102 let468)))
  (let ((let470 (ite let1 let69 let72)))
  (let ((let471 (= let180 let470)))
  (let ((let472 (ite let3 let69 let72)))
  (let ((let473 (= let440 let472)))
  (let ((let474 (and let473 let471 let469 let467)))
  (let ((let475 (and let474 let465)))
  (let ((let476 (=> let475 let75)))
  (let ((let477 (not let476)))
  let477
))))))))))))))))))))))))))))))))))))))))))))))))))))))))))))))))))))))))))))))))))))))))))))))))))))))))))))))))))))))))))))))))))))))))))))))))))))))))))))))))))))))))))))))))))))))))))))))))))))))))))))))))))))))))))))))))))))))))))))))))))))))))))))))))))))))))))))))))))))))))))))))))))))))))))))))))))))))))))))))))))))))))))))))))))))))))))))))))))))))))))))))))))))))))))))))))))))))))))))))))))))))))))))))))))))))))))))))))))))))))))))))))))))))))))))))))))))))))))))))
)
(check-sat)
